# Solution for model SBM-StripPacking-18
# Objective value = 238
c[0,0] 178
c[0,1] 109
c[1,0] 207
c[1,1] 144
c[2,0] 226
c[2,1] 92
c[3,0] 54.5
c[3,1] 92
c[4,0] 244.5
c[4,1] 84
c[5,0] 166
c[5,1] 208
c[6,0] 47.5
c[6,1] 211
c[7,0] 168.5
c[7,1] 227
c[8,0] 62
c[8,1] 23.5
c[9,0] 173
c[9,1] 151.5
c[10,0] 223.5
c[10,1] 209.5
c[11,0] 126.5
c[11,1] 208
c[12,0] 192
c[12,1] 176
c[13,0] 227
c[13,1] 40
c[14,0] 163
c[14,1] 193.5
c[15,0] 225.5
c[15,1] 112.5
c[16,0] 257.5
c[16,1] 121
c[17,0] 99.5
c[17,1] 222
h 238
delta[0,1] 1
delta[0,2] 0
delta[0,3] 1
delta[0,4] 0
delta[0,5] 1
delta[0,6] 1
delta[0,7] 1
delta[0,8] 0
delta[0,9] 1
delta[0,10] 1
delta[0,11] 1
delta[0,12] 1
delta[0,13] 0
delta[0,14] 1
delta[0,15] 0
delta[0,16] 0
delta[0,17] 1
delta[1,0] 0
delta[1,2] 0
delta[1,3] 1
delta[1,4] 0
delta[1,5] 1
delta[1,6] 1
delta[1,7] 1
delta[1,8] 0
delta[1,9] 1
delta[1,10] 1
delta[1,11] 1
delta[1,12] 1
delta[1,13] 0
delta[1,14] 1
delta[1,15] 0
delta[1,16] 0
delta[1,17] 1
delta[2,0] 0
delta[2,1] 1
delta[2,3] 1
delta[2,4] 0
delta[2,5] 1
delta[2,6] 1
delta[2,7] 1
delta[2,8] 0
delta[2,9] 1
delta[2,10] 1
delta[2,11] 0
delta[2,12] 0
delta[2,13] 0
delta[2,14] 0
delta[2,15] 1
delta[2,16] 1
delta[2,17] 1
delta[3,0] 1
delta[3,1] 1
delta[3,2] 1
delta[3,4] 0
delta[3,5] 1
delta[3,6] 1
delta[3,7] 1
delta[3,8] 0
delta[3,9] 0
delta[3,10] 1
delta[3,11] 1
delta[3,12] 1
delta[3,13] 1
delta[3,14] 1
delta[3,15] 1
delta[3,16] 1
delta[3,17] 1
delta[4,0] 0
delta[4,1] 0
delta[4,2] 1
delta[4,3] 0
delta[4,5] 1
delta[4,6] 1
delta[4,7] 1
delta[4,8] 0
delta[4,9] 1
delta[4,10] 1
delta[4,11] 0
delta[4,12] 0
delta[4,13] 0
delta[4,14] 0
delta[4,15] 1
delta[4,16] 1
delta[4,17] 1
delta[5,0] 0
delta[5,1] 0
delta[5,2] 0
delta[5,3] 0
delta[5,4] 0
delta[5,6] 1
delta[5,7] 1
delta[5,8] 0
delta[5,9] 0
delta[5,10] 1
delta[5,11] 0
delta[5,12] 0
delta[5,13] 0
delta[5,14] 0
delta[5,15] 0
delta[5,16] 0
delta[5,17] 0
delta[6,0] 0
delta[6,1] 0
delta[6,2] 0
delta[6,3] 0
delta[6,4] 0
delta[6,5] 1
delta[6,7] 0
delta[6,8] 0
delta[6,9] 0
delta[6,10] 1
delta[6,11] 1
delta[6,12] 1
delta[6,13] 0
delta[6,14] 1
delta[6,15] 0
delta[6,16] 0
delta[6,17] 1
delta[7,0] 0
delta[7,1] 0
delta[7,2] 0
delta[7,3] 0
delta[7,4] 0
delta[7,5] 0
delta[7,6] 0
delta[7,8] 0
delta[7,9] 0
delta[7,10] 1
delta[7,11] 0
delta[7,12] 0
delta[7,13] 0
delta[7,14] 0
delta[7,15] 0
delta[7,16] 0
delta[7,17] 0
delta[8,0] 1
delta[8,1] 1
delta[8,2] 1
delta[8,3] 1
delta[8,4] 1
delta[8,5] 1
delta[8,6] 1
delta[8,7] 1
delta[8,9] 1
delta[8,10] 1
delta[8,11] 1
delta[8,12] 1
delta[8,13] 1
delta[8,14] 1
delta[8,15] 1
delta[8,16] 1
delta[8,17] 1
delta[9,0] 0
delta[9,1] 1
delta[9,2] 0
delta[9,3] 0
delta[9,4] 0
delta[9,5] 1
delta[9,6] 0
delta[9,7] 1
delta[9,8] 0
delta[9,10] 1
delta[9,11] 0
delta[9,12] 1
delta[9,13] 0
delta[9,14] 1
delta[9,15] 1
delta[9,16] 1
delta[9,17] 0
delta[10,0] 0
delta[10,1] 0
delta[10,2] 0
delta[10,3] 1
delta[10,4] 0
delta[10,5] 1
delta[10,6] 1
delta[10,7] 1
delta[10,8] 0
delta[10,9] 1
delta[10,11] 1
delta[10,12] 1
delta[10,13] 0
delta[10,14] 1
delta[10,15] 0
delta[10,16] 0
delta[10,17] 1
delta[11,0] 1
delta[11,1] 0
delta[11,2] 0
delta[11,3] 0
delta[11,4] 0
delta[11,5] 0
delta[11,6] 1
delta[11,7] 1
delta[11,8] 0
delta[11,9] 0
delta[11,10] 1
delta[11,12] 0
delta[11,13] 0
delta[11,14] 0
delta[11,15] 0
delta[11,16] 0
delta[11,17] 1
delta[12,0] 0
delta[12,1] 0
delta[12,2] 0
delta[12,3] 1
delta[12,4] 0
delta[12,5] 1
delta[12,6] 1
delta[12,7] 1
delta[12,8] 0
delta[12,9] 0
delta[12,10] 1
delta[12,11] 0
delta[12,13] 0
delta[12,14] 1
delta[12,15] 0
delta[12,16] 0
delta[12,17] 1
delta[13,0] 1
delta[13,1] 1
delta[13,2] 1
delta[13,3] 1
delta[13,4] 1
delta[13,5] 1
delta[13,6] 1
delta[13,7] 1
delta[13,8] 1
delta[13,9] 1
delta[13,10] 1
delta[13,11] 1
delta[13,12] 1
delta[13,14] 1
delta[13,15] 1
delta[13,16] 1
delta[13,17] 1
delta[14,0] 0
delta[14,1] 0
delta[14,2] 0
delta[14,3] 1
delta[14,4] 0
delta[14,5] 1
delta[14,6] 1
delta[14,7] 1
delta[14,8] 0
delta[14,9] 0
delta[14,10] 1
delta[14,11] 0
delta[14,12] 1
delta[14,13] 0
delta[14,15] 0
delta[14,16] 0
delta[14,17] 1
delta[15,0] 0
delta[15,1] 1
delta[15,2] 0
delta[15,3] 1
delta[15,4] 0
delta[15,5] 1
delta[15,6] 1
delta[15,7] 1
delta[15,8] 0
delta[15,9] 1
delta[15,10] 1
delta[15,11] 0
delta[15,12] 0
delta[15,13] 0
delta[15,14] 0
delta[15,16] 0
delta[15,17] 1
delta[16,0] 0
delta[16,1] 0
delta[16,2] 1
delta[16,3] 1
delta[16,4] 0
delta[16,5] 1
delta[16,6] 1
delta[16,7] 1
delta[16,8] 0
delta[16,9] 1
delta[16,10] 1
delta[16,11] 0
delta[16,12] 0
delta[16,13] 0
delta[16,14] 0
delta[16,15] 0
delta[16,17] 1
delta[17,0] 0
delta[17,1] 0
delta[17,2] 0
delta[17,3] 0
delta[17,4] 0
delta[17,5] 0
delta[17,6] 1
delta[17,7] 0
delta[17,8] 0
delta[17,9] 0
delta[17,10] 1
delta[17,11] 1
delta[17,12] 0
delta[17,13] 1
delta[17,14] 1
delta[17,15] 0
delta[17,16] 0
DELTA[0,1] 0
DELTA[0,2] 0
DELTA[0,3] 1
DELTA[0,4] 0
DELTA[0,5] 0
DELTA[0,6] 0
DELTA[0,7] 0
DELTA[0,8] 0
DELTA[0,9] 0
DELTA[0,10] 0
DELTA[0,11] 1
DELTA[0,12] 0
DELTA[0,13] 0
DELTA[0,14] 0
DELTA[0,15] 0
DELTA[0,16] 0
DELTA[0,17] 0
DELTA[1,2] 0
DELTA[1,3] 1
DELTA[1,4] 0
DELTA[1,5] 0
DELTA[1,6] 0
DELTA[1,7] 0
DELTA[1,8] 0
DELTA[1,9] 1
DELTA[1,10] 0
DELTA[1,11] 0
DELTA[1,12] 0
DELTA[1,13] 0
DELTA[1,14] 0
DELTA[1,15] 0
DELTA[1,16] 0
DELTA[1,17] 0
DELTA[2,3] 1
DELTA[2,4] 0
DELTA[2,5] 0
DELTA[2,6] 0
DELTA[2,7] 0
DELTA[2,8] 0
DELTA[2,9] 0
DELTA[2,10] 0
DELTA[2,11] 0
DELTA[2,12] 0
DELTA[2,13] 0
DELTA[2,14] 0
DELTA[2,15] 0
DELTA[2,16] 1
DELTA[2,17] 0
DELTA[3,4] 0
DELTA[3,5] 0
DELTA[3,6] 0
DELTA[3,7] 0
DELTA[3,8] 0
DELTA[3,9] 0
DELTA[3,10] 1
DELTA[3,11] 0
DELTA[3,12] 1
DELTA[3,13] 1
DELTA[3,14] 1
DELTA[3,15] 1
DELTA[3,16] 1
DELTA[3,17] 0
DELTA[4,5] 0
DELTA[4,6] 0
DELTA[4,7] 0
DELTA[4,8] 0
DELTA[4,9] 0
DELTA[4,10] 0
DELTA[4,11] 0
DELTA[4,12] 0
DELTA[4,13] 0
DELTA[4,14] 0
DELTA[4,15] 0
DELTA[4,16] 0
DELTA[4,17] 0
DELTA[5,6] 1
DELTA[5,7] 0
DELTA[5,8] 0
DELTA[5,9] 0
DELTA[5,10] 1
DELTA[5,11] 0
DELTA[5,12] 0
DELTA[5,13] 0
DELTA[5,14] 0
DELTA[5,15] 0
DELTA[5,16] 0
DELTA[5,17] 0
DELTA[6,7] 0
DELTA[6,8] 0
DELTA[6,9] 0
DELTA[6,10] 1
DELTA[6,11] 1
DELTA[6,12] 1
DELTA[6,13] 0
DELTA[6,14] 1
DELTA[6,15] 0
DELTA[6,16] 0
DELTA[6,17] 1
DELTA[7,8] 0
DELTA[7,9] 0
DELTA[7,10] 1
DELTA[7,11] 0
DELTA[7,12] 0
DELTA[7,13] 0
DELTA[7,14] 0
DELTA[7,15] 0
DELTA[7,16] 0
DELTA[7,17] 0
DELTA[8,9] 0
DELTA[8,10] 0
DELTA[8,11] 0
DELTA[8,12] 0
DELTA[8,13] 1
DELTA[8,14] 0
DELTA[8,15] 0
DELTA[8,16] 0
DELTA[8,17] 0
DELTA[9,10] 1
DELTA[9,11] 0
DELTA[9,12] 0
DELTA[9,13] 0
DELTA[9,14] 0
DELTA[9,15] 1
DELTA[9,16] 1
DELTA[9,17] 0
DELTA[10,11] 1
DELTA[10,12] 1
DELTA[10,13] 0
DELTA[10,14] 1
DELTA[10,15] 0
DELTA[10,16] 0
DELTA[10,17] 1
DELTA[11,12] 0
DELTA[11,13] 0
DELTA[11,14] 0
DELTA[11,15] 0
DELTA[11,16] 0
DELTA[11,17] 1
DELTA[12,13] 0
DELTA[12,14] 1
DELTA[12,15] 0
DELTA[12,16] 0
DELTA[12,17] 0
DELTA[13,14] 0
DELTA[13,15] 0
DELTA[13,16] 0
DELTA[13,17] 1
DELTA[14,15] 0
DELTA[14,16] 0
DELTA[14,17] 1
DELTA[15,16] 0
DELTA[15,17] 0
DELTA[16,17] 0
